c generated by sgen
c see http://www.cs.qub.ac.uk/~i.spence/sgen
p cnf 85 180
-2 -3 -4 0
-1 -3 -4 0
-1 -2 -4 0
-1 -2 -3 0
-6 -7 -8 0
-5 -7 -8 0
-5 -6 -8 0
-5 -6 -7 0
-10 -11 -12 0
-9 -11 -12 0
-9 -10 -12 0
-9 -10 -11 0
-14 -15 -16 0
-13 -15 -16 0
-13 -14 -16 0
-13 -14 -15 0
-18 -19 -20 0
-17 -19 -20 0
-17 -18 -20 0
-17 -18 -19 0
-22 -23 -24 0
-21 -23 -24 0
-21 -22 -24 0
-21 -22 -23 0
-26 -27 -28 0
-25 -27 -28 0
-25 -26 -28 0
-25 -26 -27 0
-30 -31 -32 0
-29 -31 -32 0
-29 -30 -32 0
-29 -30 -31 0
-34 -35 -36 0
-33 -35 -36 0
-33 -34 -36 0
-33 -34 -35 0
-38 -39 -40 0
-37 -39 -40 0
-37 -38 -40 0
-37 -38 -39 0
-42 -43 -44 0
-41 -43 -44 0
-41 -42 -44 0
-41 -42 -43 0
-46 -47 -48 0
-45 -47 -48 0
-45 -46 -48 0
-45 -46 -47 0
-50 -51 -52 0
-49 -51 -52 0
-49 -50 -52 0
-49 -50 -51 0
-54 -55 -56 0
-53 -55 -56 0
-53 -54 -56 0
-53 -54 -55 0
-58 -59 -60 0
-57 -59 -60 0
-57 -58 -60 0
-57 -58 -59 0
-62 -63 -64 0
-61 -63 -64 0
-61 -62 -64 0
-61 -62 -63 0
-66 -67 -68 0
-65 -67 -68 0
-65 -66 -68 0
-65 -66 -67 0
-70 -71 -72 0
-69 -71 -72 0
-69 -70 -72 0
-69 -70 -71 0
-74 -75 -76 0
-73 -75 -76 0
-73 -74 -76 0
-73 -74 -75 0
-78 -79 -80 0
-77 -79 -80 0
-77 -78 -80 0
-77 -78 -79 0
-81 -82 -83 0
-81 -82 -84 0
-81 -82 -85 0
-81 -83 -84 0
-81 -83 -85 0
-81 -84 -85 0
-82 -83 -84 0
-82 -83 -85 0
-82 -84 -85 0
-83 -84 -85 0
62 42 35 0
56 42 35 0
56 62 35 0
56 62 42 0
39 79 83 0
43 79 83 0
43 39 83 0
43 39 79 0
25 54 24 0
31 54 24 0
31 25 24 0
31 25 54 0
37 71 47 0
22 71 47 0
22 37 47 0
22 37 71 0
1 55 40 0
12 55 40 0
12 1 40 0
12 1 55 0
67 13 63 0
45 13 63 0
45 67 63 0
45 67 13 0
11 28 59 0
17 28 59 0
17 11 59 0
17 11 28 0
20 77 52 0
70 77 52 0
70 20 52 0
70 20 77 0
69 10 85 0
32 10 85 0
32 69 85 0
32 69 10 0
41 14 74 0
49 14 74 0
49 41 74 0
49 41 14 0
6 16 27 0
82 16 27 0
82 6 27 0
82 6 16 0
8 61 80 0
30 61 80 0
30 8 80 0
30 8 61 0
68 23 36 0
78 23 36 0
78 68 36 0
78 68 23 0
21 64 76 0
9 64 76 0
9 21 76 0
9 21 64 0
7 33 72 0
73 33 72 0
73 7 72 0
73 7 33 0
5 50 57 0
38 50 57 0
38 5 57 0
38 5 50 0
18 48 53 0
81 48 53 0
81 18 53 0
81 18 48 0
66 2 26 0
51 2 26 0
51 66 26 0
51 66 2 0
44 58 29 0
65 58 29 0
65 44 29 0
65 44 58 0
34 15 3 0
19 15 3 0
19 34 3 0
19 34 15 0
60 75 4 0
60 75 84 0
60 75 46 0
60 4 84 0
60 4 46 0
60 84 46 0
75 4 84 0
75 4 46 0
75 84 46 0
4 84 46 0
